NAME: X420-FSMD
COMMENT: Generated by Uchoa, Pecin, Pessoa, Poggi, Subramanian, and Vidal (2013). Modified by Sadykov, Pessoa and Uchoa (2017). Converted to PyVRP's VRPLIB dialect.
TYPE: HFVRP
DIMENSION: 420
VEHICLES: 2095
EDGE_WEIGHT_TYPE: EUC_2D
NODE_COORD_SECTION
1	500	500
2	707	633
3	405	122
4	811	419
5	11	667
6	336	612
7	366	50
8	98	836
9	414	996
10	243	713
11	100	232
12	891	946
13	132	204
14	25	642
15	994	18
16	636	897
17	214	651
18	108	619
19	882	399
20	863	607
21	409	585
22	247	882
23	553	507
24	677	258
25	673	644
26	25	182
27	251	111
28	263	799
29	660	359
30	351	288
31	172	127
32	382	441
33	231	650
34	966	485
35	964	107
36	876	164
37	949	328
38	936	70
39	229	744
40	161	214
41	581	594
42	154	860
43	23	374
44	736	600
45	594	542
46	846	684
47	355	471
48	675	597
49	663	653
50	61	889
51	685	150
52	129	248
53	161	301
54	180	836
55	427	670
56	833	860
57	669	251
58	411	403
59	450	926
60	591	505
61	468	157
62	288	484
63	574	955
64	795	521
65	41	65
66	175	486
67	74	436
68	907	13
69	579	912
70	765	835
71	176	189
72	972	351
73	470	22
74	577	469
75	561	672
76	110	670
77	811	614
78	460	344
79	862	486
80	22	369
81	898	295
82	89	934
83	164	871
84	487	617
85	731	565
86	470	722
87	509	209
88	860	845
89	515	312
90	434	712
91	388	521
92	573	250
93	155	316
94	143	923
95	247	971
96	641	297
97	763	749
98	585	887
99	987	361
100	153	215
101	150	669
102	76	153
103	456	635
104	778	497
105	334	529
106	764	789
107	963	378
108	262	404
109	32	672
110	118	874
111	764	315
112	931	462
113	168	831
114	443	2
115	571	812
116	185	964
117	368	628
118	366	788
119	48	374
120	8	464
121	459	77
122	345	357
123	315	149
124	458	286
125	974	86
126	167	854
127	441	425
128	172	20
129	646	948
130	444	937
131	950	129
132	866	18
133	915	849
134	119	279
135	319	332
136	832	902
137	421	365
138	963	71
139	478	741
140	443	54
141	509	966
142	70	520
143	311	207
144	648	127
145	726	506
146	371	345
147	154	221
148	475	537
149	322	738
150	118	284
151	297	415
152	530	967
153	752	797
154	394	589
155	482	59
156	497	863
157	171	716
158	610	528
159	405	568
160	638	940
161	940	914
162	4	886
163	215	994
164	294	675
165	121	701
166	143	460
167	14	530
168	383	815
169	982	781
170	424	566
171	358	11
172	902	869
173	490	744
174	567	535
175	754	413
176	424	613
177	820	574
178	125	213
179	164	351
180	605	589
181	844	145
182	978	462
183	503	582
184	673	603
185	643	721
186	831	659
187	137	502
188	939	228
189	999	456
190	722	196
191	390	650
192	288	304
193	895	896
194	514	985
195	32	202
196	688	434
197	20	476
198	400	947
199	794	478
200	681	487
201	266	24
202	398	522
203	853	439
204	889	98
205	226	257
206	858	168
207	343	182
208	511	170
209	699	283
210	954	856
211	852	451
212	826	367
213	183	100
214	208	169
215	811	354
216	923	501
217	170	88
218	843	418
219	826	363
220	722	458
221	153	129
222	917	390
223	879	482
224	799	437
225	853	476
226	91	194
227	829	388
228	848	323
229	807	271
230	860	607
231	159	131
232	832	286
233	925	291
234	713	394
235	705	361
236	863	371
237	181	47
238	232	70
239	780	515
240	833	494
241	24	239
242	369	28
243	803	450
244	897	396
245	752	394
246	176	310
247	983	470
248	917	370
249	754	457
250	969	335
251	194	4
252	796	468
253	680	629
254	175	153
255	207	142
256	221	99
257	290	232
258	834	424
259	990	502
260	960	462
261	862	259
262	208	38
263	838	439
264	633	344
265	864	426
266	187	350
267	110	275
268	823	508
269	907	303
270	160	11
271	795	482
272	773	350
273	865	555
274	726	319
275	169	121
276	816	609
277	894	327
278	54	27
279	895	569
280	871	439
281	348	150
282	883	463
283	298	65
284	229	190
285	201	12
286	899	435
287	470	60
288	923	737
289	978	312
290	89	97
291	645	398
292	803	214
293	279	85
294	947	568
295	792	330
296	750	169
297	827	402
298	180	86
299	713	461
300	871	410
301	919	526
302	724	385
303	828	290
304	615	466
305	834	345
306	713	648
307	268	124
308	912	446
309	873	447
310	821	402
311	887	399
312	819	560
313	827	508
314	794	432
315	159	134
316	29	81
317	2	63
318	907	245
319	881	592
320	842	356
321	864	410
322	765	352
323	876	318
324	956	648
325	784	417
326	881	413
327	329	214
328	950	499
329	744	404
330	823	384
331	787	292
332	880	359
333	827	367
334	887	497
335	772	348
336	263	36
337	808	274
338	801	491
339	159	215
340	555	303
341	834	491
342	844	424
343	813	434
344	708	495
345	664	522
346	656	391
347	879	583
348	742	437
349	224	329
350	959	581
351	726	321
352	802	345
353	796	361
354	203	87
355	810	389
356	863	263
357	887	641
358	811	503
359	835	481
360	959	431
361	76	115
362	891	414
363	813	425
364	234	75
365	762	300
366	252	50
367	840	400
368	350	278
369	732	558
370	192	142
371	883	462
372	712	63
373	888	453
374	118	193
375	857	352
376	171	165
377	644	466
378	807	418
379	807	149
380	955	230
381	238	113
382	912	579
383	836	492
384	795	367
385	192	32
386	795	337
387	868	379
388	773	293
389	849	442
390	987	568
391	297	185
392	780	403
393	711	376
394	171	155
395	865	432
396	806	359
397	863	362
398	729	544
399	930	410
400	776	408
401	130	123
402	799	418
403	811	304
404	821	315
405	861	382
406	778	402
407	971	288
408	918	397
409	791	419
410	774	308
411	782	407
412	210	93
413	768	507
414	768	342
415	417	125
416	834	391
417	818	400
418	856	637
419	818	292
420	822	240
DEMAND_SECTION
1	0
2	6
3	9
4	8
5	6
6	4
7	8
8	3
9	4
10	10
11	1
12	9
13	9
14	5
15	10
16	5
17	6
18	9
19	8
20	10
21	8
22	8
23	4
24	8
25	7
26	3
27	5
28	10
29	10
30	8
31	2
32	2
33	8
34	7
35	10
36	9
37	2
38	9
39	10
40	2
41	1
42	6
43	1
44	2
45	4
46	6
47	7
48	8
49	8
50	5
51	7
52	4
53	7
54	1
55	5
56	6
57	9
58	2
59	6
60	4
61	6
62	5
63	10
64	7
65	4
66	6
67	1
68	2
69	4
70	9
71	1
72	6
73	4
74	9
75	1
76	5
77	2
78	2
79	9
80	6
81	7
82	10
83	10
84	8
85	7
86	3
87	2
88	10
89	3
90	5
91	8
92	10
93	3
94	7
95	5
96	3
97	10
98	7
99	10
100	4
101	3
102	3
103	4
104	8
105	7
106	3
107	10
108	5
109	2
110	3
111	1
112	10
113	9
114	9
115	4
116	9
117	9
118	3
119	6
120	3
121	6
122	6
123	6
124	7
125	4
126	4
127	1
128	1
129	2
130	3
131	5
132	1
133	8
134	9
135	1
136	9
137	6
138	2
139	6
140	8
141	6
142	7
143	4
144	2
145	10
146	6
147	8
148	3
149	3
150	10
151	2
152	5
153	2
154	10
155	1
156	10
157	8
158	4
159	10
160	2
161	5
162	8
163	3
164	10
165	10
166	7
167	6
168	1
169	5
170	1
171	6
172	10
173	2
174	5
175	1
176	4
177	4
178	4
179	10
180	8
181	8
182	3
183	1
184	9
185	7
186	9
187	8
188	6
189	5
190	6
191	4
192	10
193	5
194	8
195	3
196	7
197	9
198	5
199	1
200	4
201	1
202	3
203	7
204	9
205	3
206	4
207	5
208	7
209	8
210	8
211	7
212	10
213	6
214	2
215	7
216	5
217	6
218	10
219	6
220	2
221	6
222	9
223	6
224	4
225	6
226	5
227	2
228	10
229	6
230	4
231	8
232	1
233	9
234	3
235	9
236	1
237	7
238	4
239	10
240	2
241	5
242	2
243	7
244	4
245	7
246	5
247	3
248	6
249	4
250	5
251	3
252	4
253	10
254	3
255	10
256	6
257	3
258	4
259	8
260	3
261	1
262	1
263	2
264	3
265	4
266	4
267	9
268	2
269	5
270	3
271	7
272	2
273	2
274	10
275	8
276	9
277	1
278	2
279	10
280	2
281	6
282	9
283	7
284	9
285	10
286	6
287	9
288	9
289	3
290	9
291	8
292	5
293	3
294	7
295	4
296	2
297	1
298	1
299	3
300	9
301	8
302	2
303	9
304	8
305	4
306	5
307	8
308	10
309	8
310	1
311	3
312	7
313	9
314	5
315	5
316	2
317	4
318	7
319	4
320	4
321	1
322	4
323	1
324	2
325	5
326	9
327	7
328	10
329	5
330	8
331	2
332	9
333	5
334	9
335	10
336	2
337	6
338	3
339	4
340	4
341	8
342	1
343	3
344	10
345	7
346	8
347	5
348	2
349	2
350	7
351	8
352	1
353	1
354	3
355	5
356	10
357	5
358	8
359	5
360	7
361	3
362	8
363	1
364	8
365	8
366	3
367	2
368	4
369	3
370	7
371	5
372	7
373	3
374	2
375	4
376	4
377	5
378	2
379	6
380	4
381	7
382	3
383	6
384	4
385	10
386	10
387	7
388	5
389	4
390	1
391	10
392	6
393	9
394	7
395	9
396	2
397	6
398	3
399	8
400	7
401	1
402	10
403	7
404	7
405	2
406	3
407	8
408	10
409	10
410	1
411	4
412	5
413	6
414	4
415	9
416	3
417	2
418	9
419	5
420	5
CAPACITY_SECTION
1	6
2	6
3	6
4	6
5	6
6	6
7	6
8	6
9	6
10	6
11	6
12	6
13	6
14	6
15	6
16	6
17	6
18	6
19	6
20	6
21	6
22	6
23	6
24	6
25	6
26	6
27	6
28	6
29	6
30	6
31	6
32	6
33	6
34	6
35	6
36	6
37	6
38	6
39	6
40	6
41	6
42	6
43	6
44	6
45	6
46	6
47	6
48	6
49	6
50	6
51	6
52	6
53	6
54	6
55	6
56	6
57	6
58	6
59	6
60	6
61	6
62	6
63	6
64	6
65	6
66	6
67	6
68	6
69	6
70	6
71	6
72	6
73	6
74	6
75	6
76	6
77	6
78	6
79	6
80	6
81	6
82	6
83	6
84	6
85	6
86	6
87	6
88	6
89	6
90	6
91	6
92	6
93	6
94	6
95	6
96	6
97	6
98	6
99	6
100	6
101	6
102	6
103	6
104	6
105	6
106	6
107	6
108	6
109	6
110	6
111	6
112	6
113	6
114	6
115	6
116	6
117	6
118	6
119	6
120	6
121	6
122	6
123	6
124	6
125	6
126	6
127	6
128	6
129	6
130	6
131	6
132	6
133	6
134	6
135	6
136	6
137	6
138	6
139	6
140	6
141	6
142	6
143	6
144	6
145	6
146	6
147	6
148	6
149	6
150	6
151	6
152	6
153	6
154	6
155	6
156	6
157	6
158	6
159	6
160	6
161	6
162	6
163	6
164	6
165	6
166	6
167	6
168	6
169	6
170	6
171	6
172	6
173	6
174	6
175	6
176	6
177	6
178	6
179	6
180	6
181	6
182	6
183	6
184	6
185	6
186	6
187	6
188	6
189	6
190	6
191	6
192	6
193	6
194	6
195	6
196	6
197	6
198	6
199	6
200	6
201	6
202	6
203	6
204	6
205	6
206	6
207	6
208	6
209	6
210	6
211	6
212	6
213	6
214	6
215	6
216	6
217	6
218	6
219	6
220	6
221	6
222	6
223	6
224	6
225	6
226	6
227	6
228	6
229	6
230	6
231	6
232	6
233	6
234	6
235	6
236	6
237	6
238	6
239	6
240	6
241	6
242	6
243	6
244	6
245	6
246	6
247	6
248	6
249	6
250	6
251	6
252	6
253	6
254	6
255	6
256	6
257	6
258	6
259	6
260	6
261	6
262	6
263	6
264	6
265	6
266	6
267	6
268	6
269	6
270	6
271	6
272	6
273	6
274	6
275	6
276	6
277	6
278	6
279	6
280	6
281	6
282	6
283	6
284	6
285	6
286	6
287	6
288	6
289	6
290	6
291	6
292	6
293	6
294	6
295	6
296	6
297	6
298	6
299	6
300	6
301	6
302	6
303	6
304	6
305	6
306	6
307	6
308	6
309	6
310	6
311	6
312	6
313	6
314	6
315	6
316	6
317	6
318	6
319	6
320	6
321	6
322	6
323	6
324	6
325	6
326	6
327	6
328	6
329	6
330	6
331	6
332	6
333	6
334	6
335	6
336	6
337	6
338	6
339	6
340	6
341	6
342	6
343	6
344	6
345	6
346	6
347	6
348	6
349	6
350	6
351	6
352	6
353	6
354	6
355	6
356	6
357	6
358	6
359	6
360	6
361	6
362	6
363	6
364	6
365	6
366	6
367	6
368	6
369	6
370	6
371	6
372	6
373	6
374	6
375	6
376	6
377	6
378	6
379	6
380	6
381	6
382	6
383	6
384	6
385	6
386	6
387	6
388	6
389	6
390	6
391	6
392	6
393	6
394	6
395	6
396	6
397	6
398	6
399	6
400	6
401	6
402	6
403	6
404	6
405	6
406	6
407	6
408	6
409	6
410	6
411	6
412	6
413	6
414	6
415	6
416	6
417	6
418	6
419	6
420	9
421	9
422	9
423	9
424	9
425	9
426	9
427	9
428	9
429	9
430	9
431	9
432	9
433	9
434	9
435	9
436	9
437	9
438	9
439	9
440	9
441	9
442	9
443	9
444	9
445	9
446	9
447	9
448	9
449	9
450	9
451	9
452	9
453	9
454	9
455	9
456	9
457	9
458	9
459	9
460	9
461	9
462	9
463	9
464	9
465	9
466	9
467	9
468	9
469	9
470	9
471	9
472	9
473	9
474	9
475	9
476	9
477	9
478	9
479	9
480	9
481	9
482	9
483	9
484	9
485	9
486	9
487	9
488	9
489	9
490	9
491	9
492	9
493	9
494	9
495	9
496	9
497	9
498	9
499	9
500	9
501	9
502	9
503	9
504	9
505	9
506	9
507	9
508	9
509	9
510	9
511	9
512	9
513	9
514	9
515	9
516	9
517	9
518	9
519	9
520	9
521	9
522	9
523	9
524	9
525	9
526	9
527	9
528	9
529	9
530	9
531	9
532	9
533	9
534	9
535	9
536	9
537	9
538	9
539	9
540	9
541	9
542	9
543	9
544	9
545	9
546	9
547	9
548	9
549	9
550	9
551	9
552	9
553	9
554	9
555	9
556	9
557	9
558	9
559	9
560	9
561	9
562	9
563	9
564	9
565	9
566	9
567	9
568	9
569	9
570	9
571	9
572	9
573	9
574	9
575	9
576	9
577	9
578	9
579	9
580	9
581	9
582	9
583	9
584	9
585	9
586	9
587	9
588	9
589	9
590	9
591	9
592	9
593	9
594	9
595	9
596	9
597	9
598	9
599	9
600	9
601	9
602	9
603	9
604	9
605	9
606	9
607	9
608	9
609	9
610	9
611	9
612	9
613	9
614	9
615	9
616	9
617	9
618	9
619	9
620	9
621	9
622	9
623	9
624	9
625	9
626	9
627	9
628	9
629	9
630	9
631	9
632	9
633	9
634	9
635	9
636	9
637	9
638	9
639	9
640	9
641	9
642	9
643	9
644	9
645	9
646	9
647	9
648	9
649	9
650	9
651	9
652	9
653	9
654	9
655	9
656	9
657	9
658	9
659	9
660	9
661	9
662	9
663	9
664	9
665	9
666	9
667	9
668	9
669	9
670	9
671	9
672	9
673	9
674	9
675	9
676	9
677	9
678	9
679	9
680	9
681	9
682	9
683	9
684	9
685	9
686	9
687	9
688	9
689	9
690	9
691	9
692	9
693	9
694	9
695	9
696	9
697	9
698	9
699	9
700	9
701	9
702	9
703	9
704	9
705	9
706	9
707	9
708	9
709	9
710	9
711	9
712	9
713	9
714	9
715	9
716	9
717	9
718	9
719	9
720	9
721	9
722	9
723	9
724	9
725	9
726	9
727	9
728	9
729	9
730	9
731	9
732	9
733	9
734	9
735	9
736	9
737	9
738	9
739	9
740	9
741	9
742	9
743	9
744	9
745	9
746	9
747	9
748	9
749	9
750	9
751	9
752	9
753	9
754	9
755	9
756	9
757	9
758	9
759	9
760	9
761	9
762	9
763	9
764	9
765	9
766	9
767	9
768	9
769	9
770	9
771	9
772	9
773	9
774	9
775	9
776	9
777	9
778	9
779	9
780	9
781	9
782	9
783	9
784	9
785	9
786	9
787	9
788	9
789	9
790	9
791	9
792	9
793	9
794	9
795	9
796	9
797	9
798	9
799	9
800	9
801	9
802	9
803	9
804	9
805	9
806	9
807	9
808	9
809	9
810	9
811	9
812	9
813	9
814	9
815	9
816	9
817	9
818	9
819	9
820	9
821	9
822	9
823	9
824	9
825	9
826	9
827	9
828	9
829	9
830	9
831	9
832	9
833	9
834	9
835	9
836	9
837	9
838	9
839	15
840	15
841	15
842	15
843	15
844	15
845	15
846	15
847	15
848	15
849	15
850	15
851	15
852	15
853	15
854	15
855	15
856	15
857	15
858	15
859	15
860	15
861	15
862	15
863	15
864	15
865	15
866	15
867	15
868	15
869	15
870	15
871	15
872	15
873	15
874	15
875	15
876	15
877	15
878	15
879	15
880	15
881	15
882	15
883	15
884	15
885	15
886	15
887	15
888	15
889	15
890	15
891	15
892	15
893	15
894	15
895	15
896	15
897	15
898	15
899	15
900	15
901	15
902	15
903	15
904	15
905	15
906	15
907	15
908	15
909	15
910	15
911	15
912	15
913	15
914	15
915	15
916	15
917	15
918	15
919	15
920	15
921	15
922	15
923	15
924	15
925	15
926	15
927	15
928	15
929	15
930	15
931	15
932	15
933	15
934	15
935	15
936	15
937	15
938	15
939	15
940	15
941	15
942	15
943	15
944	15
945	15
946	15
947	15
948	15
949	15
950	15
951	15
952	15
953	15
954	15
955	15
956	15
957	15
958	15
959	15
960	15
961	15
962	15
963	15
964	15
965	15
966	15
967	15
968	15
969	15
970	15
971	15
972	15
973	15
974	15
975	15
976	15
977	15
978	15
979	15
980	15
981	15
982	15
983	15
984	15
985	15
986	15
987	15
988	15
989	15
990	15
991	15
992	15
993	15
994	15
995	15
996	15
997	15
998	15
999	15
1000	15
1001	15
1002	15
1003	15
1004	15
1005	15
1006	15
1007	15
1008	15
1009	15
1010	15
1011	15
1012	15
1013	15
1014	15
1015	15
1016	15
1017	15
1018	15
1019	15
1020	15
1021	15
1022	15
1023	15
1024	15
1025	15
1026	15
1027	15
1028	15
1029	15
1030	15
1031	15
1032	15
1033	15
1034	15
1035	15
1036	15
1037	15
1038	15
1039	15
1040	15
1041	15
1042	15
1043	15
1044	15
1045	15
1046	15
1047	15
1048	15
1049	15
1050	15
1051	15
1052	15
1053	15
1054	15
1055	15
1056	15
1057	15
1058	15
1059	15
1060	15
1061	15
1062	15
1063	15
1064	15
1065	15
1066	15
1067	15
1068	15
1069	15
1070	15
1071	15
1072	15
1073	15
1074	15
1075	15
1076	15
1077	15
1078	15
1079	15
1080	15
1081	15
1082	15
1083	15
1084	15
1085	15
1086	15
1087	15
1088	15
1089	15
1090	15
1091	15
1092	15
1093	15
1094	15
1095	15
1096	15
1097	15
1098	15
1099	15
1100	15
1101	15
1102	15
1103	15
1104	15
1105	15
1106	15
1107	15
1108	15
1109	15
1110	15
1111	15
1112	15
1113	15
1114	15
1115	15
1116	15
1117	15
1118	15
1119	15
1120	15
1121	15
1122	15
1123	15
1124	15
1125	15
1126	15
1127	15
1128	15
1129	15
1130	15
1131	15
1132	15
1133	15
1134	15
1135	15
1136	15
1137	15
1138	15
1139	15
1140	15
1141	15
1142	15
1143	15
1144	15
1145	15
1146	15
1147	15
1148	15
1149	15
1150	15
1151	15
1152	15
1153	15
1154	15
1155	15
1156	15
1157	15
1158	15
1159	15
1160	15
1161	15
1162	15
1163	15
1164	15
1165	15
1166	15
1167	15
1168	15
1169	15
1170	15
1171	15
1172	15
1173	15
1174	15
1175	15
1176	15
1177	15
1178	15
1179	15
1180	15
1181	15
1182	15
1183	15
1184	15
1185	15
1186	15
1187	15
1188	15
1189	15
1190	15
1191	15
1192	15
1193	15
1194	15
1195	15
1196	15
1197	15
1198	15
1199	15
1200	15
1201	15
1202	15
1203	15
1204	15
1205	15
1206	15
1207	15
1208	15
1209	15
1210	15
1211	15
1212	15
1213	15
1214	15
1215	15
1216	15
1217	15
1218	15
1219	15
1220	15
1221	15
1222	15
1223	15
1224	15
1225	15
1226	15
1227	15
1228	15
1229	15
1230	15
1231	15
1232	15
1233	15
1234	15
1235	15
1236	15
1237	15
1238	15
1239	15
1240	15
1241	15
1242	15
1243	15
1244	15
1245	15
1246	15
1247	15
1248	15
1249	15
1250	15
1251	15
1252	15
1253	15
1254	15
1255	15
1256	15
1257	15
1258	23
1259	23
1260	23
1261	23
1262	23
1263	23
1264	23
1265	23
1266	23
1267	23
1268	23
1269	23
1270	23
1271	23
1272	23
1273	23
1274	23
1275	23
1276	23
1277	23
1278	23
1279	23
1280	23
1281	23
1282	23
1283	23
1284	23
1285	23
1286	23
1287	23
1288	23
1289	23
1290	23
1291	23
1292	23
1293	23
1294	23
1295	23
1296	23
1297	23
1298	23
1299	23
1300	23
1301	23
1302	23
1303	23
1304	23
1305	23
1306	23
1307	23
1308	23
1309	23
1310	23
1311	23
1312	23
1313	23
1314	23
1315	23
1316	23
1317	23
1318	23
1319	23
1320	23
1321	23
1322	23
1323	23
1324	23
1325	23
1326	23
1327	23
1328	23
1329	23
1330	23
1331	23
1332	23
1333	23
1334	23
1335	23
1336	23
1337	23
1338	23
1339	23
1340	23
1341	23
1342	23
1343	23
1344	23
1345	23
1346	23
1347	23
1348	23
1349	23
1350	23
1351	23
1352	23
1353	23
1354	23
1355	23
1356	23
1357	23
1358	23
1359	23
1360	23
1361	23
1362	23
1363	23
1364	23
1365	23
1366	23
1367	23
1368	23
1369	23
1370	23
1371	23
1372	23
1373	23
1374	23
1375	23
1376	23
1377	23
1378	23
1379	23
1380	23
1381	23
1382	23
1383	23
1384	23
1385	23
1386	23
1387	23
1388	23
1389	23
1390	23
1391	23
1392	23
1393	23
1394	23
1395	23
1396	23
1397	23
1398	23
1399	23
1400	23
1401	23
1402	23
1403	23
1404	23
1405	23
1406	23
1407	23
1408	23
1409	23
1410	23
1411	23
1412	23
1413	23
1414	23
1415	23
1416	23
1417	23
1418	23
1419	23
1420	23
1421	23
1422	23
1423	23
1424	23
1425	23
1426	23
1427	23
1428	23
1429	23
1430	23
1431	23
1432	23
1433	23
1434	23
1435	23
1436	23
1437	23
1438	23
1439	23
1440	23
1441	23
1442	23
1443	23
1444	23
1445	23
1446	23
1447	23
1448	23
1449	23
1450	23
1451	23
1452	23
1453	23
1454	23
1455	23
1456	23
1457	23
1458	23
1459	23
1460	23
1461	23
1462	23
1463	23
1464	23
1465	23
1466	23
1467	23
1468	23
1469	23
1470	23
1471	23
1472	23
1473	23
1474	23
1475	23
1476	23
1477	23
1478	23
1479	23
1480	23
1481	23
1482	23
1483	23
1484	23
1485	23
1486	23
1487	23
1488	23
1489	23
1490	23
1491	23
1492	23
1493	23
1494	23
1495	23
1496	23
1497	23
1498	23
1499	23
1500	23
1501	23
1502	23
1503	23
1504	23
1505	23
1506	23
1507	23
1508	23
1509	23
1510	23
1511	23
1512	23
1513	23
1514	23
1515	23
1516	23
1517	23
1518	23
1519	23
1520	23
1521	23
1522	23
1523	23
1524	23
1525	23
1526	23
1527	23
1528	23
1529	23
1530	23
1531	23
1532	23
1533	23
1534	23
1535	23
1536	23
1537	23
1538	23
1539	23
1540	23
1541	23
1542	23
1543	23
1544	23
1545	23
1546	23
1547	23
1548	23
1549	23
1550	23
1551	23
1552	23
1553	23
1554	23
1555	23
1556	23
1557	23
1558	23
1559	23
1560	23
1561	23
1562	23
1563	23
1564	23
1565	23
1566	23
1567	23
1568	23
1569	23
1570	23
1571	23
1572	23
1573	23
1574	23
1575	23
1576	23
1577	23
1578	23
1579	23
1580	23
1581	23
1582	23
1583	23
1584	23
1585	23
1586	23
1587	23
1588	23
1589	23
1590	23
1591	23
1592	23
1593	23
1594	23
1595	23
1596	23
1597	23
1598	23
1599	23
1600	23
1601	23
1602	23
1603	23
1604	23
1605	23
1606	23
1607	23
1608	23
1609	23
1610	23
1611	23
1612	23
1613	23
1614	23
1615	23
1616	23
1617	23
1618	23
1619	23
1620	23
1621	23
1622	23
1623	23
1624	23
1625	23
1626	23
1627	23
1628	23
1629	23
1630	23
1631	23
1632	23
1633	23
1634	23
1635	23
1636	23
1637	23
1638	23
1639	23
1640	23
1641	23
1642	23
1643	23
1644	23
1645	23
1646	23
1647	23
1648	23
1649	23
1650	23
1651	23
1652	23
1653	23
1654	23
1655	23
1656	23
1657	23
1658	23
1659	23
1660	23
1661	23
1662	23
1663	23
1664	23
1665	23
1666	23
1667	23
1668	23
1669	23
1670	23
1671	23
1672	23
1673	23
1674	23
1675	23
1676	23
1677	36
1678	36
1679	36
1680	36
1681	36
1682	36
1683	36
1684	36
1685	36
1686	36
1687	36
1688	36
1689	36
1690	36
1691	36
1692	36
1693	36
1694	36
1695	36
1696	36
1697	36
1698	36
1699	36
1700	36
1701	36
1702	36
1703	36
1704	36
1705	36
1706	36
1707	36
1708	36
1709	36
1710	36
1711	36
1712	36
1713	36
1714	36
1715	36
1716	36
1717	36
1718	36
1719	36
1720	36
1721	36
1722	36
1723	36
1724	36
1725	36
1726	36
1727	36
1728	36
1729	36
1730	36
1731	36
1732	36
1733	36
1734	36
1735	36
1736	36
1737	36
1738	36
1739	36
1740	36
1741	36
1742	36
1743	36
1744	36
1745	36
1746	36
1747	36
1748	36
1749	36
1750	36
1751	36
1752	36
1753	36
1754	36
1755	36
1756	36
1757	36
1758	36
1759	36
1760	36
1761	36
1762	36
1763	36
1764	36
1765	36
1766	36
1767	36
1768	36
1769	36
1770	36
1771	36
1772	36
1773	36
1774	36
1775	36
1776	36
1777	36
1778	36
1779	36
1780	36
1781	36
1782	36
1783	36
1784	36
1785	36
1786	36
1787	36
1788	36
1789	36
1790	36
1791	36
1792	36
1793	36
1794	36
1795	36
1796	36
1797	36
1798	36
1799	36
1800	36
1801	36
1802	36
1803	36
1804	36
1805	36
1806	36
1807	36
1808	36
1809	36
1810	36
1811	36
1812	36
1813	36
1814	36
1815	36
1816	36
1817	36
1818	36
1819	36
1820	36
1821	36
1822	36
1823	36
1824	36
1825	36
1826	36
1827	36
1828	36
1829	36
1830	36
1831	36
1832	36
1833	36
1834	36
1835	36
1836	36
1837	36
1838	36
1839	36
1840	36
1841	36
1842	36
1843	36
1844	36
1845	36
1846	36
1847	36
1848	36
1849	36
1850	36
1851	36
1852	36
1853	36
1854	36
1855	36
1856	36
1857	36
1858	36
1859	36
1860	36
1861	36
1862	36
1863	36
1864	36
1865	36
1866	36
1867	36
1868	36
1869	36
1870	36
1871	36
1872	36
1873	36
1874	36
1875	36
1876	36
1877	36
1878	36
1879	36
1880	36
1881	36
1882	36
1883	36
1884	36
1885	36
1886	36
1887	36
1888	36
1889	36
1890	36
1891	36
1892	36
1893	36
1894	36
1895	36
1896	36
1897	36
1898	36
1899	36
1900	36
1901	36
1902	36
1903	36
1904	36
1905	36
1906	36
1907	36
1908	36
1909	36
1910	36
1911	36
1912	36
1913	36
1914	36
1915	36
1916	36
1917	36
1918	36
1919	36
1920	36
1921	36
1922	36
1923	36
1924	36
1925	36
1926	36
1927	36
1928	36
1929	36
1930	36
1931	36
1932	36
1933	36
1934	36
1935	36
1936	36
1937	36
1938	36
1939	36
1940	36
1941	36
1942	36
1943	36
1944	36
1945	36
1946	36
1947	36
1948	36
1949	36
1950	36
1951	36
1952	36
1953	36
1954	36
1955	36
1956	36
1957	36
1958	36
1959	36
1960	36
1961	36
1962	36
1963	36
1964	36
1965	36
1966	36
1967	36
1968	36
1969	36
1970	36
1971	36
1972	36
1973	36
1974	36
1975	36
1976	36
1977	36
1978	36
1979	36
1980	36
1981	36
1982	36
1983	36
1984	36
1985	36
1986	36
1987	36
1988	36
1989	36
1990	36
1991	36
1992	36
1993	36
1994	36
1995	36
1996	36
1997	36
1998	36
1999	36
2000	36
2001	36
2002	36
2003	36
2004	36
2005	36
2006	36
2007	36
2008	36
2009	36
2010	36
2011	36
2012	36
2013	36
2014	36
2015	36
2016	36
2017	36
2018	36
2019	36
2020	36
2021	36
2022	36
2023	36
2024	36
2025	36
2026	36
2027	36
2028	36
2029	36
2030	36
2031	36
2032	36
2033	36
2034	36
2035	36
2036	36
2037	36
2038	36
2039	36
2040	36
2041	36
2042	36
2043	36
2044	36
2045	36
2046	36
2047	36
2048	36
2049	36
2050	36
2051	36
2052	36
2053	36
2054	36
2055	36
2056	36
2057	36
2058	36
2059	36
2060	36
2061	36
2062	36
2063	36
2064	36
2065	36
2066	36
2067	36
2068	36
2069	36
2070	36
2071	36
2072	36
2073	36
2074	36
2075	36
2076	36
2077	36
2078	36
2079	36
2080	36
2081	36
2082	36
2083	36
2084	36
2085	36
2086	36
2087	36
2088	36
2089	36
2090	36
2091	36
2092	36
2093	36
2094	36
2095	36
VEHICLES_UNIT_DISTANCE_COST_SECTION
1	50
2	50
3	50
4	50
5	50
6	50
7	50
8	50
9	50
10	50
11	50
12	50
13	50
14	50
15	50
16	50
17	50
18	50
19	50
20	50
21	50
22	50
23	50
24	50
25	50
26	50
27	50
28	50
29	50
30	50
31	50
32	50
33	50
34	50
35	50
36	50
37	50
38	50
39	50
40	50
41	50
42	50
43	50
44	50
45	50
46	50
47	50
48	50
49	50
50	50
51	50
52	50
53	50
54	50
55	50
56	50
57	50
58	50
59	50
60	50
61	50
62	50
63	50
64	50
65	50
66	50
67	50
68	50
69	50
70	50
71	50
72	50
73	50
74	50
75	50
76	50
77	50
78	50
79	50
80	50
81	50
82	50
83	50
84	50
85	50
86	50
87	50
88	50
89	50
90	50
91	50
92	50
93	50
94	50
95	50
96	50
97	50
98	50
99	50
100	50
101	50
102	50
103	50
104	50
105	50
106	50
107	50
108	50
109	50
110	50
111	50
112	50
113	50
114	50
115	50
116	50
117	50
118	50
119	50
120	50
121	50
122	50
123	50
124	50
125	50
126	50
127	50
128	50
129	50
130	50
131	50
132	50
133	50
134	50
135	50
136	50
137	50
138	50
139	50
140	50
141	50
142	50
143	50
144	50
145	50
146	50
147	50
148	50
149	50
150	50
151	50
152	50
153	50
154	50
155	50
156	50
157	50
158	50
159	50
160	50
161	50
162	50
163	50
164	50
165	50
166	50
167	50
168	50
169	50
170	50
171	50
172	50
173	50
174	50
175	50
176	50
177	50
178	50
179	50
180	50
181	50
182	50
183	50
184	50
185	50
186	50
187	50
188	50
189	50
190	50
191	50
192	50
193	50
194	50
195	50
196	50
197	50
198	50
199	50
200	50
201	50
202	50
203	50
204	50
205	50
206	50
207	50
208	50
209	50
210	50
211	50
212	50
213	50
214	50
215	50
216	50
217	50
218	50
219	50
220	50
221	50
222	50
223	50
224	50
225	50
226	50
227	50
228	50
229	50
230	50
231	50
232	50
233	50
234	50
235	50
236	50
237	50
238	50
239	50
240	50
241	50
242	50
243	50
244	50
245	50
246	50
247	50
248	50
249	50
250	50
251	50
252	50
253	50
254	50
255	50
256	50
257	50
258	50
259	50
260	50
261	50
262	50
263	50
264	50
265	50
266	50
267	50
268	50
269	50
270	50
271	50
272	50
273	50
274	50
275	50
276	50
277	50
278	50
279	50
280	50
281	50
282	50
283	50
284	50
285	50
286	50
287	50
288	50
289	50
290	50
291	50
292	50
293	50
294	50
295	50
296	50
297	50
298	50
299	50
300	50
301	50
302	50
303	50
304	50
305	50
306	50
307	50
308	50
309	50
310	50
311	50
312	50
313	50
314	50
315	50
316	50
317	50
318	50
319	50
320	50
321	50
322	50
323	50
324	50
325	50
326	50
327	50
328	50
329	50
330	50
331	50
332	50
333	50
334	50
335	50
336	50
337	50
338	50
339	50
340	50
341	50
342	50
343	50
344	50
345	50
346	50
347	50
348	50
349	50
350	50
351	50
352	50
353	50
354	50
355	50
356	50
357	50
358	50
359	50
360	50
361	50
362	50
363	50
364	50
365	50
366	50
367	50
368	50
369	50
370	50
371	50
372	50
373	50
374	50
375	50
376	50
377	50
378	50
379	50
380	50
381	50
382	50
383	50
384	50
385	50
386	50
387	50
388	50
389	50
390	50
391	50
392	50
393	50
394	50
395	50
396	50
397	50
398	50
399	50
400	50
401	50
402	50
403	50
404	50
405	50
406	50
407	50
408	50
409	50
410	50
411	50
412	50
413	50
414	50
415	50
416	50
417	50
418	50
419	50
420	71
421	71
422	71
423	71
424	71
425	71
426	71
427	71
428	71
429	71
430	71
431	71
432	71
433	71
434	71
435	71
436	71
437	71
438	71
439	71
440	71
441	71
442	71
443	71
444	71
445	71
446	71
447	71
448	71
449	71
450	71
451	71
452	71
453	71
454	71
455	71
456	71
457	71
458	71
459	71
460	71
461	71
462	71
463	71
464	71
465	71
466	71
467	71
468	71
469	71
470	71
471	71
472	71
473	71
474	71
475	71
476	71
477	71
478	71
479	71
480	71
481	71
482	71
483	71
484	71
485	71
486	71
487	71
488	71
489	71
490	71
491	71
492	71
493	71
494	71
495	71
496	71
497	71
498	71
499	71
500	71
501	71
502	71
503	71
504	71
505	71
506	71
507	71
508	71
509	71
510	71
511	71
512	71
513	71
514	71
515	71
516	71
517	71
518	71
519	71
520	71
521	71
522	71
523	71
524	71
525	71
526	71
527	71
528	71
529	71
530	71
531	71
532	71
533	71
534	71
535	71
536	71
537	71
538	71
539	71
540	71
541	71
542	71
543	71
544	71
545	71
546	71
547	71
548	71
549	71
550	71
551	71
552	71
553	71
554	71
555	71
556	71
557	71
558	71
559	71
560	71
561	71
562	71
563	71
564	71
565	71
566	71
567	71
568	71
569	71
570	71
571	71
572	71
573	71
574	71
575	71
576	71
577	71
578	71
579	71
580	71
581	71
582	71
583	71
584	71
585	71
586	71
587	71
588	71
589	71
590	71
591	71
592	71
593	71
594	71
595	71
596	71
597	71
598	71
599	71
600	71
601	71
602	71
603	71
604	71
605	71
606	71
607	71
608	71
609	71
610	71
611	71
612	71
613	71
614	71
615	71
616	71
617	71
618	71
619	71
620	71
621	71
622	71
623	71
624	71
625	71
626	71
627	71
628	71
629	71
630	71
631	71
632	71
633	71
634	71
635	71
636	71
637	71
638	71
639	71
640	71
641	71
642	71
643	71
644	71
645	71
646	71
647	71
648	71
649	71
650	71
651	71
652	71
653	71
654	71
655	71
656	71
657	71
658	71
659	71
660	71
661	71
662	71
663	71
664	71
665	71
666	71
667	71
668	71
669	71
670	71
671	71
672	71
673	71
674	71
675	71
676	71
677	71
678	71
679	71
680	71
681	71
682	71
683	71
684	71
685	71
686	71
687	71
688	71
689	71
690	71
691	71
692	71
693	71
694	71
695	71
696	71
697	71
698	71
699	71
700	71
701	71
702	71
703	71
704	71
705	71
706	71
707	71
708	71
709	71
710	71
711	71
712	71
713	71
714	71
715	71
716	71
717	71
718	71
719	71
720	71
721	71
722	71
723	71
724	71
725	71
726	71
727	71
728	71
729	71
730	71
731	71
732	71
733	71
734	71
735	71
736	71
737	71
738	71
739	71
740	71
741	71
742	71
743	71
744	71
745	71
746	71
747	71
748	71
749	71
750	71
751	71
752	71
753	71
754	71
755	71
756	71
757	71
758	71
759	71
760	71
761	71
762	71
763	71
764	71
765	71
766	71
767	71
768	71
769	71
770	71
771	71
772	71
773	71
774	71
775	71
776	71
777	71
778	71
779	71
780	71
781	71
782	71
783	71
784	71
785	71
786	71
787	71
788	71
789	71
790	71
791	71
792	71
793	71
794	71
795	71
796	71
797	71
798	71
799	71
800	71
801	71
802	71
803	71
804	71
805	71
806	71
807	71
808	71
809	71
810	71
811	71
812	71
813	71
814	71
815	71
816	71
817	71
818	71
819	71
820	71
821	71
822	71
823	71
824	71
825	71
826	71
827	71
828	71
829	71
830	71
831	71
832	71
833	71
834	71
835	71
836	71
837	71
838	71
839	100
840	100
841	100
842	100
843	100
844	100
845	100
846	100
847	100
848	100
849	100
850	100
851	100
852	100
853	100
854	100
855	100
856	100
857	100
858	100
859	100
860	100
861	100
862	100
863	100
864	100
865	100
866	100
867	100
868	100
869	100
870	100
871	100
872	100
873	100
874	100
875	100
876	100
877	100
878	100
879	100
880	100
881	100
882	100
883	100
884	100
885	100
886	100
887	100
888	100
889	100
890	100
891	100
892	100
893	100
894	100
895	100
896	100
897	100
898	100
899	100
900	100
901	100
902	100
903	100
904	100
905	100
906	100
907	100
908	100
909	100
910	100
911	100
912	100
913	100
914	100
915	100
916	100
917	100
918	100
919	100
920	100
921	100
922	100
923	100
924	100
925	100
926	100
927	100
928	100
929	100
930	100
931	100
932	100
933	100
934	100
935	100
936	100
937	100
938	100
939	100
940	100
941	100
942	100
943	100
944	100
945	100
946	100
947	100
948	100
949	100
950	100
951	100
952	100
953	100
954	100
955	100
956	100
957	100
958	100
959	100
960	100
961	100
962	100
963	100
964	100
965	100
966	100
967	100
968	100
969	100
970	100
971	100
972	100
973	100
974	100
975	100
976	100
977	100
978	100
979	100
980	100
981	100
982	100
983	100
984	100
985	100
986	100
987	100
988	100
989	100
990	100
991	100
992	100
993	100
994	100
995	100
996	100
997	100
998	100
999	100
1000	100
1001	100
1002	100
1003	100
1004	100
1005	100
1006	100
1007	100
1008	100
1009	100
1010	100
1011	100
1012	100
1013	100
1014	100
1015	100
1016	100
1017	100
1018	100
1019	100
1020	100
1021	100
1022	100
1023	100
1024	100
1025	100
1026	100
1027	100
1028	100
1029	100
1030	100
1031	100
1032	100
1033	100
1034	100
1035	100
1036	100
1037	100
1038	100
1039	100
1040	100
1041	100
1042	100
1043	100
1044	100
1045	100
1046	100
1047	100
1048	100
1049	100
1050	100
1051	100
1052	100
1053	100
1054	100
1055	100
1056	100
1057	100
1058	100
1059	100
1060	100
1061	100
1062	100
1063	100
1064	100
1065	100
1066	100
1067	100
1068	100
1069	100
1070	100
1071	100
1072	100
1073	100
1074	100
1075	100
1076	100
1077	100
1078	100
1079	100
1080	100
1081	100
1082	100
1083	100
1084	100
1085	100
1086	100
1087	100
1088	100
1089	100
1090	100
1091	100
1092	100
1093	100
1094	100
1095	100
1096	100
1097	100
1098	100
1099	100
1100	100
1101	100
1102	100
1103	100
1104	100
1105	100
1106	100
1107	100
1108	100
1109	100
1110	100
1111	100
1112	100
1113	100
1114	100
1115	100
1116	100
1117	100
1118	100
1119	100
1120	100
1121	100
1122	100
1123	100
1124	100
1125	100
1126	100
1127	100
1128	100
1129	100
1130	100
1131	100
1132	100
1133	100
1134	100
1135	100
1136	100
1137	100
1138	100
1139	100
1140	100
1141	100
1142	100
1143	100
1144	100
1145	100
1146	100
1147	100
1148	100
1149	100
1150	100
1151	100
1152	100
1153	100
1154	100
1155	100
1156	100
1157	100
1158	100
1159	100
1160	100
1161	100
1162	100
1163	100
1164	100
1165	100
1166	100
1167	100
1168	100
1169	100
1170	100
1171	100
1172	100
1173	100
1174	100
1175	100
1176	100
1177	100
1178	100
1179	100
1180	100
1181	100
1182	100
1183	100
1184	100
1185	100
1186	100
1187	100
1188	100
1189	100
1190	100
1191	100
1192	100
1193	100
1194	100
1195	100
1196	100
1197	100
1198	100
1199	100
1200	100
1201	100
1202	100
1203	100
1204	100
1205	100
1206	100
1207	100
1208	100
1209	100
1210	100
1211	100
1212	100
1213	100
1214	100
1215	100
1216	100
1217	100
1218	100
1219	100
1220	100
1221	100
1222	100
1223	100
1224	100
1225	100
1226	100
1227	100
1228	100
1229	100
1230	100
1231	100
1232	100
1233	100
1234	100
1235	100
1236	100
1237	100
1238	100
1239	100
1240	100
1241	100
1242	100
1243	100
1244	100
1245	100
1246	100
1247	100
1248	100
1249	100
1250	100
1251	100
1252	100
1253	100
1254	100
1255	100
1256	100
1257	100
1258	138
1259	138
1260	138
1261	138
1262	138
1263	138
1264	138
1265	138
1266	138
1267	138
1268	138
1269	138
1270	138
1271	138
1272	138
1273	138
1274	138
1275	138
1276	138
1277	138
1278	138
1279	138
1280	138
1281	138
1282	138
1283	138
1284	138
1285	138
1286	138
1287	138
1288	138
1289	138
1290	138
1291	138
1292	138
1293	138
1294	138
1295	138
1296	138
1297	138
1298	138
1299	138
1300	138
1301	138
1302	138
1303	138
1304	138
1305	138
1306	138
1307	138
1308	138
1309	138
1310	138
1311	138
1312	138
1313	138
1314	138
1315	138
1316	138
1317	138
1318	138
1319	138
1320	138
1321	138
1322	138
1323	138
1324	138
1325	138
1326	138
1327	138
1328	138
1329	138
1330	138
1331	138
1332	138
1333	138
1334	138
1335	138
1336	138
1337	138
1338	138
1339	138
1340	138
1341	138
1342	138
1343	138
1344	138
1345	138
1346	138
1347	138
1348	138
1349	138
1350	138
1351	138
1352	138
1353	138
1354	138
1355	138
1356	138
1357	138
1358	138
1359	138
1360	138
1361	138
1362	138
1363	138
1364	138
1365	138
1366	138
1367	138
1368	138
1369	138
1370	138
1371	138
1372	138
1373	138
1374	138
1375	138
1376	138
1377	138
1378	138
1379	138
1380	138
1381	138
1382	138
1383	138
1384	138
1385	138
1386	138
1387	138
1388	138
1389	138
1390	138
1391	138
1392	138
1393	138
1394	138
1395	138
1396	138
1397	138
1398	138
1399	138
1400	138
1401	138
1402	138
1403	138
1404	138
1405	138
1406	138
1407	138
1408	138
1409	138
1410	138
1411	138
1412	138
1413	138
1414	138
1415	138
1416	138
1417	138
1418	138
1419	138
1420	138
1421	138
1422	138
1423	138
1424	138
1425	138
1426	138
1427	138
1428	138
1429	138
1430	138
1431	138
1432	138
1433	138
1434	138
1435	138
1436	138
1437	138
1438	138
1439	138
1440	138
1441	138
1442	138
1443	138
1444	138
1445	138
1446	138
1447	138
1448	138
1449	138
1450	138
1451	138
1452	138
1453	138
1454	138
1455	138
1456	138
1457	138
1458	138
1459	138
1460	138
1461	138
1462	138
1463	138
1464	138
1465	138
1466	138
1467	138
1468	138
1469	138
1470	138
1471	138
1472	138
1473	138
1474	138
1475	138
1476	138
1477	138
1478	138
1479	138
1480	138
1481	138
1482	138
1483	138
1484	138
1485	138
1486	138
1487	138
1488	138
1489	138
1490	138
1491	138
1492	138
1493	138
1494	138
1495	138
1496	138
1497	138
1498	138
1499	138
1500	138
1501	138
1502	138
1503	138
1504	138
1505	138
1506	138
1507	138
1508	138
1509	138
1510	138
1511	138
1512	138
1513	138
1514	138
1515	138
1516	138
1517	138
1518	138
1519	138
1520	138
1521	138
1522	138
1523	138
1524	138
1525	138
1526	138
1527	138
1528	138
1529	138
1530	138
1531	138
1532	138
1533	138
1534	138
1535	138
1536	138
1537	138
1538	138
1539	138
1540	138
1541	138
1542	138
1543	138
1544	138
1545	138
1546	138
1547	138
1548	138
1549	138
1550	138
1551	138
1552	138
1553	138
1554	138
1555	138
1556	138
1557	138
1558	138
1559	138
1560	138
1561	138
1562	138
1563	138
1564	138
1565	138
1566	138
1567	138
1568	138
1569	138
1570	138
1571	138
1572	138
1573	138
1574	138
1575	138
1576	138
1577	138
1578	138
1579	138
1580	138
1581	138
1582	138
1583	138
1584	138
1585	138
1586	138
1587	138
1588	138
1589	138
1590	138
1591	138
1592	138
1593	138
1594	138
1595	138
1596	138
1597	138
1598	138
1599	138
1600	138
1601	138
1602	138
1603	138
1604	138
1605	138
1606	138
1607	138
1608	138
1609	138
1610	138
1611	138
1612	138
1613	138
1614	138
1615	138
1616	138
1617	138
1618	138
1619	138
1620	138
1621	138
1622	138
1623	138
1624	138
1625	138
1626	138
1627	138
1628	138
1629	138
1630	138
1631	138
1632	138
1633	138
1634	138
1635	138
1636	138
1637	138
1638	138
1639	138
1640	138
1641	138
1642	138
1643	138
1644	138
1645	138
1646	138
1647	138
1648	138
1649	138
1650	138
1651	138
1652	138
1653	138
1654	138
1655	138
1656	138
1657	138
1658	138
1659	138
1660	138
1661	138
1662	138
1663	138
1664	138
1665	138
1666	138
1667	138
1668	138
1669	138
1670	138
1671	138
1672	138
1673	138
1674	138
1675	138
1676	138
1677	195
1678	195
1679	195
1680	195
1681	195
1682	195
1683	195
1684	195
1685	195
1686	195
1687	195
1688	195
1689	195
1690	195
1691	195
1692	195
1693	195
1694	195
1695	195
1696	195
1697	195
1698	195
1699	195
1700	195
1701	195
1702	195
1703	195
1704	195
1705	195
1706	195
1707	195
1708	195
1709	195
1710	195
1711	195
1712	195
1713	195
1714	195
1715	195
1716	195
1717	195
1718	195
1719	195
1720	195
1721	195
1722	195
1723	195
1724	195
1725	195
1726	195
1727	195
1728	195
1729	195
1730	195
1731	195
1732	195
1733	195
1734	195
1735	195
1736	195
1737	195
1738	195
1739	195
1740	195
1741	195
1742	195
1743	195
1744	195
1745	195
1746	195
1747	195
1748	195
1749	195
1750	195
1751	195
1752	195
1753	195
1754	195
1755	195
1756	195
1757	195
1758	195
1759	195
1760	195
1761	195
1762	195
1763	195
1764	195
1765	195
1766	195
1767	195
1768	195
1769	195
1770	195
1771	195
1772	195
1773	195
1774	195
1775	195
1776	195
1777	195
1778	195
1779	195
1780	195
1781	195
1782	195
1783	195
1784	195
1785	195
1786	195
1787	195
1788	195
1789	195
1790	195
1791	195
1792	195
1793	195
1794	195
1795	195
1796	195
1797	195
1798	195
1799	195
1800	195
1801	195
1802	195
1803	195
1804	195
1805	195
1806	195
1807	195
1808	195
1809	195
1810	195
1811	195
1812	195
1813	195
1814	195
1815	195
1816	195
1817	195
1818	195
1819	195
1820	195
1821	195
1822	195
1823	195
1824	195
1825	195
1826	195
1827	195
1828	195
1829	195
1830	195
1831	195
1832	195
1833	195
1834	195
1835	195
1836	195
1837	195
1838	195
1839	195
1840	195
1841	195
1842	195
1843	195
1844	195
1845	195
1846	195
1847	195
1848	195
1849	195
1850	195
1851	195
1852	195
1853	195
1854	195
1855	195
1856	195
1857	195
1858	195
1859	195
1860	195
1861	195
1862	195
1863	195
1864	195
1865	195
1866	195
1867	195
1868	195
1869	195
1870	195
1871	195
1872	195
1873	195
1874	195
1875	195
1876	195
1877	195
1878	195
1879	195
1880	195
1881	195
1882	195
1883	195
1884	195
1885	195
1886	195
1887	195
1888	195
1889	195
1890	195
1891	195
1892	195
1893	195
1894	195
1895	195
1896	195
1897	195
1898	195
1899	195
1900	195
1901	195
1902	195
1903	195
1904	195
1905	195
1906	195
1907	195
1908	195
1909	195
1910	195
1911	195
1912	195
1913	195
1914	195
1915	195
1916	195
1917	195
1918	195
1919	195
1920	195
1921	195
1922	195
1923	195
1924	195
1925	195
1926	195
1927	195
1928	195
1929	195
1930	195
1931	195
1932	195
1933	195
1934	195
1935	195
1936	195
1937	195
1938	195
1939	195
1940	195
1941	195
1942	195
1943	195
1944	195
1945	195
1946	195
1947	195
1948	195
1949	195
1950	195
1951	195
1952	195
1953	195
1954	195
1955	195
1956	195
1957	195
1958	195
1959	195
1960	195
1961	195
1962	195
1963	195
1964	195
1965	195
1966	195
1967	195
1968	195
1969	195
1970	195
1971	195
1972	195
1973	195
1974	195
1975	195
1976	195
1977	195
1978	195
1979	195
1980	195
1981	195
1982	195
1983	195
1984	195
1985	195
1986	195
1987	195
1988	195
1989	195
1990	195
1991	195
1992	195
1993	195
1994	195
1995	195
1996	195
1997	195
1998	195
1999	195
2000	195
2001	195
2002	195
2003	195
2004	195
2005	195
2006	195
2007	195
2008	195
2009	195
2010	195
2011	195
2012	195
2013	195
2014	195
2015	195
2016	195
2017	195
2018	195
2019	195
2020	195
2021	195
2022	195
2023	195
2024	195
2025	195
2026	195
2027	195
2028	195
2029	195
2030	195
2031	195
2032	195
2033	195
2034	195
2035	195
2036	195
2037	195
2038	195
2039	195
2040	195
2041	195
2042	195
2043	195
2044	195
2045	195
2046	195
2047	195
2048	195
2049	195
2050	195
2051	195
2052	195
2053	195
2054	195
2055	195
2056	195
2057	195
2058	195
2059	195
2060	195
2061	195
2062	195
2063	195
2064	195
2065	195
2066	195
2067	195
2068	195
2069	195
2070	195
2071	195
2072	195
2073	195
2074	195
2075	195
2076	195
2077	195
2078	195
2079	195
2080	195
2081	195
2082	195
2083	195
2084	195
2085	195
2086	195
2087	195
2088	195
2089	195
2090	195
2091	195
2092	195
2093	195
2094	195
2095	195
DEPOT_SECTION
1
EOF
